************************************************************************
file with basedata            : mm54_.bas
initial value random generator: 1979898886
************************************************************************
projects                      :  1
jobs (incl. supersource/sink ):  12
horizon                       :  77
RESOURCES
  - renewable                 :  2   R
  - nonrenewable              :  2   N
  - doubly constrained        :  0   D
************************************************************************
PROJECT INFORMATION:
pronr.  #jobs rel.date duedate tardcost  MPM-Time
    1     10      0       15        6       15
************************************************************************
PRECEDENCE RELATIONS:
jobnr.    #modes  #successors   successors
   1        1          3           2   3   4
   2        3          1           9
   3        3          2           5   8
   4        3          3           8   9  11
   5        3          1           6
   6        3          2           7   9
   7        3          2          10  11
   8        3          1          10
   9        3          1          12
  10        3          1          12
  11        3          1          12
  12        1          0        
************************************************************************
REQUESTS/DURATIONS:
jobnr. mode duration  R 1  R 2  N 1  N 2
------------------------------------------------------------------------
  1      1     0       0    0    0    0
  2      1     2       3   10    8    7
         2     5       2   10    8    5
         3     7       2    9    8    4
  3      1     1       6    5    6    4
         2     2       3    5    5    4
         3     5       1    2    3    3
  4      1     4       5    7    5    5
         2     7       4    7    5    5
         3     9       4    7    2    5
  5      1     2       8    2    9   10
         2     7       5    2    8    9
         3     8       4    2    6    8
  6      1     5       8    4    9    9
         2     8       6    4    7    9
         3     9       2    4    5    9
  7      1     3       3    8    7    8
         2     9       2    5    6    8
         3    10       2    4    1    7
  8      1     7       9    6    3   10
         2     8       7    5    3    9
         3     9       6    4    2    8
  9      1     5       6    5    8    4
         2     7       4    5    7    3
         3     9       4    4    7    1
 10      1     2       7    7    9    2
         2     2       8    6    8    3
         3     4       6    5    7    1
 11      1     4       4    8    8    7
         2     5       4    6    7    6
         3     7       4    5    5    5
 12      1     0       0    0    0    0
************************************************************************
RESOURCEAVAILABILITIES:
  R 1  R 2  N 1  N 2
   14   18   59   59
************************************************************************
MAXIMAL LAGS:
from  to  type  delay
    1   12   ES      0
    1    2   ES      0
    2   12   ES      0
    1    3   ES      0
    3   12   ES      0
    1    4   ES      0
    4   12   ES      0
    1    5   ES      0
    5   12   ES      0
    1    6   ES      0
    6   12   ES      0
    1    7   ES      0
    7   12   ES      0
    1    8   ES      0
    8   12   ES      0
    1    9   ES      0
    9   12   ES      0
    1   10   ES      0
   10   12   ES      0
    1   11   ES      0
   11   12   ES      0
    1   12   ES      0
    2    9   SS     -7
    2    9   SE     -8
    2    9   ES      6
    2    9   EE     -7
    3    5   SS     -6
    3    5   SE     -9
    3    5   ES    -12
    3    5   EE      0
    3    8   SS      3
    3    8   SE     -8
    3    8   ES     -4
    3    8   EE     -2
    4    8   SS     -6
    4    8   SE    -12
    4    8   ES      3
    4    8   EE      0
    4    9   SS     -7
    4    9   SE     -3
    4    9   ES      5
    4    9   EE     -4
    4   11   SS     -5
    4   11   SE     -6
    4   11   ES      3
    4   11   EE      7
    5    6   SS     11
    5    6   SE      3
    5    6   ES      1
    5    6   EE      1
    6    7   SS     -7
    6    7   SE      3
    6    7   ES      9
    6    7   EE    -11
    6    9   SS     -1
    6    9   SE     -9
    6    9   ES    -10
    6    9   EE     -2
    7   10   SS     10
    7   10   SE      3
    7   10   ES      7
    7   10   EE     -3
    7   11   SS     -8
    7   11   SE     -5
    7   11   ES      4
    7   11   EE      3
    8   10   SS     -6
    8   10   SE      1
    8   10   ES      3
    8   10   EE    -12
************************************************************************
